c einstein_riddle.cnf
c
p cnf 555 600
111 211 311 411 511 0
-111 -112 0
-111 -113 0
-111 -114 0
-111 -115 0
-112 -111 0
-112 -113 0
-112 -114 0
-112 -115 0
-113 -111 0
-113 -112 0
-113 -114 0
-113 -115 0
-114 -111 0
-114 -112 0
-114 -113 0
-114 -115 0
-115 -111 0
-115 -112 0
-115 -113 0
-115 -114 0
112 212 312 412 512 0
-121 -122 0
-121 -123 0
-121 -124 0
-121 -125 0
-122 -121 0
-122 -123 0
-122 -124 0
-122 -125 0
-123 -121 0
-123 -122 0
-123 -124 0
-123 -125 0
-124 -121 0
-124 -122 0
-124 -123 0
-124 -125 0
-125 -121 0
-125 -122 0
-125 -123 0
-125 -124 0
113 213 313 413 513 0
-131 -132 0
-131 -133 0
-131 -134 0
-131 -135 0
-132 -131 0
-132 -133 0
-132 -134 0
-132 -135 0
-133 -131 0
-133 -132 0
-133 -134 0
-133 -135 0
-134 -131 0
-134 -132 0
-134 -133 0
-134 -135 0
-135 -131 0
-135 -132 0
-135 -133 0
-135 -134 0
114 214 314 414 514 0
-141 -142 0
-141 -143 0
-141 -144 0
-141 -145 0
-142 -141 0
-142 -143 0
-142 -144 0
-142 -145 0
-143 -141 0
-143 -142 0
-143 -144 0
-143 -145 0
-144 -141 0
-144 -142 0
-144 -143 0
-144 -145 0
-145 -141 0
-145 -142 0
-145 -143 0
-145 -144 0
115 215 315 415 515 0
-151 -152 0
-151 -153 0
-151 -154 0
-151 -155 0
-152 -151 0
-152 -153 0
-152 -154 0
-152 -155 0
-153 -151 0
-153 -152 0
-153 -154 0
-153 -155 0
-154 -151 0
-154 -152 0
-154 -153 0
-154 -155 0
-155 -151 0
-155 -152 0
-155 -153 0
-155 -154 0
-113 123 0
-115 155 0
-112 132 0
-124 134 0
-143 153 0
-121 141 0
333 0
111 0
-145 135 0
-114 144 0
121 221 321 421 521 0
-211 -212 0
-211 -213 0
-211 -214 0
-211 -215 0
-212 -211 0
-212 -213 0
-212 -214 0
-212 -215 0
-213 -211 0
-213 -212 0
-213 -214 0
-213 -215 0
-214 -211 0
-214 -212 0
-214 -213 0
-214 -215 0
-215 -211 0
-215 -212 0
-215 -213 0
-215 -214 0
122 222 322 422 522 0
-221 -222 0
-221 -223 0
-221 -224 0
-221 -225 0
-222 -221 0
-222 -223 0
-222 -224 0
-222 -225 0
-223 -221 0
-223 -222 0
-223 -224 0
-223 -225 0
-224 -221 0
-224 -222 0
-224 -223 0
-224 -225 0
-225 -221 0
-225 -222 0
-225 -223 0
-225 -224 0
123 223 323 423 523 0
-231 -232 0
-231 -233 0
-231 -234 0
-231 -235 0
-232 -231 0
-232 -233 0
-232 -234 0
-232 -235 0
-233 -231 0
-233 -232 0
-233 -234 0
-233 -235 0
-234 -231 0
-234 -232 0
-234 -233 0
-234 -235 0
-235 -231 0
-235 -232 0
-235 -233 0
-235 -234 0
124 224 324 424 524 0
-241 -242 0
-241 -243 0
-241 -244 0
-241 -245 0
-242 -241 0
-242 -243 0
-242 -244 0
-242 -245 0
-243 -241 0
-243 -242 0
-243 -244 0
-243 -245 0
-244 -241 0
-244 -242 0
-244 -243 0
-244 -245 0
-245 -241 0
-245 -242 0
-245 -243 0
-245 -244 0
125 225 325 425 525 0
-251 -252 0
-251 -253 0
-251 -254 0
-251 -255 0
-252 -251 0
-252 -253 0
-252 -254 0
-252 -255 0
-253 -251 0
-253 -252 0
-253 -254 0
-253 -255 0
-254 -251 0
-254 -252 0
-254 -253 0
-254 -255 0
-255 -251 0
-255 -252 0
-255 -253 0
-255 -254 0
-213 223 0
-215 255 0
-212 232 0
-224 234 0
-243 253 0
-221 241 0
333 0
111 0
-245 235 0
-214 244 0
131 231 331 431 531 0
-311 -312 0
-311 -313 0
-311 -314 0
-311 -315 0
-312 -311 0
-312 -313 0
-312 -314 0
-312 -315 0
-313 -311 0
-313 -312 0
-313 -314 0
-313 -315 0
-314 -311 0
-314 -312 0
-314 -313 0
-314 -315 0
-315 -311 0
-315 -312 0
-315 -313 0
-315 -314 0
132 232 332 432 532 0
-321 -322 0
-321 -323 0
-321 -324 0
-321 -325 0
-322 -321 0
-322 -323 0
-322 -324 0
-322 -325 0
-323 -321 0
-323 -322 0
-323 -324 0
-323 -325 0
-324 -321 0
-324 -322 0
-324 -323 0
-324 -325 0
-325 -321 0
-325 -322 0
-325 -323 0
-325 -324 0
133 233 333 433 533 0
-331 -332 0
-331 -333 0
-331 -334 0
-331 -335 0
-332 -331 0
-332 -333 0
-332 -334 0
-332 -335 0
-333 -331 0
-333 -332 0
-333 -334 0
-333 -335 0
-334 -331 0
-334 -332 0
-334 -333 0
-334 -335 0
-335 -331 0
-335 -332 0
-335 -333 0
-335 -334 0
134 234 334 434 534 0
-341 -342 0
-341 -343 0
-341 -344 0
-341 -345 0
-342 -341 0
-342 -343 0
-342 -344 0
-342 -345 0
-343 -341 0
-343 -342 0
-343 -344 0
-343 -345 0
-344 -341 0
-344 -342 0
-344 -343 0
-344 -345 0
-345 -341 0
-345 -342 0
-345 -343 0
-345 -344 0
135 235 335 435 535 0
-351 -352 0
-351 -353 0
-351 -354 0
-351 -355 0
-352 -351 0
-352 -353 0
-352 -354 0
-352 -355 0
-353 -351 0
-353 -352 0
-353 -354 0
-353 -355 0
-354 -351 0
-354 -352 0
-354 -353 0
-354 -355 0
-355 -351 0
-355 -352 0
-355 -353 0
-355 -354 0
-313 323 0
-315 355 0
-312 332 0
-324 334 0
-343 353 0
-321 341 0
333 0
111 0
-345 335 0
-314 344 0
141 241 341 441 541 0
-411 -412 0
-411 -413 0
-411 -414 0
-411 -415 0
-412 -411 0
-412 -413 0
-412 -414 0
-412 -415 0
-413 -411 0
-413 -412 0
-413 -414 0
-413 -415 0
-414 -411 0
-414 -412 0
-414 -413 0
-414 -415 0
-415 -411 0
-415 -412 0
-415 -413 0
-415 -414 0
142 242 342 442 542 0
-421 -422 0
-421 -423 0
-421 -424 0
-421 -425 0
-422 -421 0
-422 -423 0
-422 -424 0
-422 -425 0
-423 -421 0
-423 -422 0
-423 -424 0
-423 -425 0
-424 -421 0
-424 -422 0
-424 -423 0
-424 -425 0
-425 -421 0
-425 -422 0
-425 -423 0
-425 -424 0
143 243 343 443 543 0
-431 -432 0
-431 -433 0
-431 -434 0
-431 -435 0
-432 -431 0
-432 -433 0
-432 -434 0
-432 -435 0
-433 -431 0
-433 -432 0
-433 -434 0
-433 -435 0
-434 -431 0
-434 -432 0
-434 -433 0
-434 -435 0
-435 -431 0
-435 -432 0
-435 -433 0
-435 -434 0
144 244 344 444 544 0
-441 -442 0
-441 -443 0
-441 -444 0
-441 -445 0
-442 -441 0
-442 -443 0
-442 -444 0
-442 -445 0
-443 -441 0
-443 -442 0
-443 -444 0
-443 -445 0
-444 -441 0
-444 -442 0
-444 -443 0
-444 -445 0
-445 -441 0
-445 -442 0
-445 -443 0
-445 -444 0
145 245 345 445 545 0
-451 -452 0
-451 -453 0
-451 -454 0
-451 -455 0
-452 -451 0
-452 -453 0
-452 -454 0
-452 -455 0
-453 -451 0
-453 -452 0
-453 -454 0
-453 -455 0
-454 -451 0
-454 -452 0
-454 -453 0
-454 -455 0
-455 -451 0
-455 -452 0
-455 -453 0
-455 -454 0
-413 423 0
-415 455 0
-412 432 0
-424 434 0
-443 453 0
-421 441 0
333 0
111 0
-445 435 0
-414 444 0
151 251 351 451 551 0
-511 -512 0
-511 -513 0
-511 -514 0
-511 -515 0
-512 -511 0
-512 -513 0
-512 -514 0
-512 -515 0
-513 -511 0
-513 -512 0
-513 -514 0
-513 -515 0
-514 -511 0
-514 -512 0
-514 -513 0
-514 -515 0
-515 -511 0
-515 -512 0
-515 -513 0
-515 -514 0
152 252 352 452 552 0
-521 -522 0
-521 -523 0
-521 -524 0
-521 -525 0
-522 -521 0
-522 -523 0
-522 -524 0
-522 -525 0
-523 -521 0
-523 -522 0
-523 -524 0
-523 -525 0
-524 -521 0
-524 -522 0
-524 -523 0
-524 -525 0
-525 -521 0
-525 -522 0
-525 -523 0
-525 -524 0
153 253 353 453 553 0
-531 -532 0
-531 -533 0
-531 -534 0
-531 -535 0
-532 -531 0
-532 -533 0
-532 -534 0
-532 -535 0
-533 -531 0
-533 -532 0
-533 -534 0
-533 -535 0
-534 -531 0
-534 -532 0
-534 -533 0
-534 -535 0
-535 -531 0
-535 -532 0
-535 -533 0
-535 -534 0
154 254 354 454 554 0
-541 -542 0
-541 -543 0
-541 -544 0
-541 -545 0
-542 -541 0
-542 -543 0
-542 -544 0
-542 -545 0
-543 -541 0
-543 -542 0
-543 -544 0
-543 -545 0
-544 -541 0
-544 -542 0
-544 -543 0
-544 -545 0
-545 -541 0
-545 -542 0
-545 -543 0
-545 -544 0
155 255 355 455 555 0
-551 -552 0
-551 -553 0
-551 -554 0
-551 -555 0
-552 -551 0
-552 -553 0
-552 -554 0
-552 -555 0
-553 -551 0
-553 -552 0
-553 -554 0
-553 -555 0
-554 -551 0
-554 -552 0
-554 -553 0
-554 -555 0
-555 -551 0
-555 -552 0
-555 -553 0
-555 -554 0
-513 523 0
-515 555 0
-512 532 0
-524 534 0
-543 553 0
-521 541 0
333 0
111 0
-545 535 0
-514 544 0
-542 0
-424 525 0
-324 425 525 0
-224 325 425 525 0
-142 251 0
-242 151 351 0
-342 251 451 0
-442 351 551 0
-542 451 0
-152 241 0
-252 141 341 0
-352 241 441 0
-452 341 541 0
-552 441 0
-111 222 0
-211 122 322 0
-311 222 422 0
-411 322 522 0
-511 422 0
-142 231 0
-242 131 331 0
-342 231 431 0
-442 331 531 0
-542 431 0
-254 0

